p cnf 76 341
1 2 3 4 0 
-1 -2 0 
-1 -3 0 
-1 -4 0 
-2 -3 0 
-2 -4 0 
-3 -4 0 
5 6 7 8 0 
-5 -6 0 
-5 -7 0 
-5 -8 0 
-6 -7 0 
-6 -8 0 
-7 -8 0 
9 10 11 12 0 
-9 -10 0 
-9 -11 0 
-9 -12 0 
-10 -11 0 
-10 -12 0 
-11 -12 0 
13 14 15 16 0 
-13 -14 0 
-13 -15 0 
-13 -16 0 
-14 -15 0 
-14 -16 0 
-15 -16 0 
17 18 19 20 0 
-17 -18 0 
-17 -19 0 
-17 -20 0 
-18 -19 0 
-18 -20 0 
-19 -20 0 
21 22 23 24 0 
-21 -22 0 
-21 -23 0 
-21 -24 0 
-22 -23 0 
-22 -24 0 
-23 -24 0 
25 26 27 28 0 
-25 -26 0 
-25 -27 0 
-25 -28 0 
-26 -27 0 
-26 -28 0 
-27 -28 0 
29 30 31 32 0 
-29 -30 0 
-29 -31 0 
-29 -32 0 
-30 -31 0 
-30 -32 0 
-31 -32 0 
33 34 35 36 0 
-33 -34 0 
-33 -35 0 
-33 -36 0 
-34 -35 0 
-34 -36 0 
-35 -36 0 
37 38 39 40 0 
-37 -38 0 
-37 -39 0 
-37 -40 0 
-38 -39 0 
-38 -40 0 
-39 -40 0 
41 42 43 44 0 
-41 -42 0 
-41 -43 0 
-41 -44 0 
-42 -43 0 
-42 -44 0 
-43 -44 0 
45 46 47 48 0 
-45 -46 0 
-45 -47 0 
-45 -48 0 
-46 -47 0 
-46 -48 0 
-47 -48 0 
49 50 51 52 0 
-49 -50 0 
-49 -51 0 
-49 -52 0 
-50 -51 0 
-50 -52 0 
-51 -52 0 
53 54 55 56 0 
-53 -54 0 
-53 -55 0 
-53 -56 0 
-54 -55 0 
-54 -56 0 
-55 -56 0 
57 58 59 60 0 
-57 -58 0 
-57 -59 0 
-57 -60 0 
-58 -59 0 
-58 -60 0 
-59 -60 0 
61 62 63 64 0 
-61 -62 0 
-61 -63 0 
-61 -64 0 
-62 -63 0 
-62 -64 0 
-63 -64 0 
65 66 67 68 0 
-65 -66 0 
-65 -67 0 
-65 -68 0 
-66 -67 0 
-66 -68 0 
-67 -68 0 
69 70 71 72 0 
-69 -70 0 
-69 -71 0 
-69 -72 0 
-70 -71 0 
-70 -72 0 
-71 -72 0 
73 74 75 76 0 
-73 -74 0 
-73 -75 0 
-73 -76 0 
-74 -75 0 
-74 -76 0 
-75 -76 0 
-1 -73 0
-2 -74 0
-3 -75 0
-4 -76 0
-1 -45 0
-2 -46 0
-3 -47 0
-4 -48 0
-1 -17 0
-2 -18 0
-3 -19 0
-4 -20 0
-1 -13 0
-2 -14 0
-3 -15 0
-4 -16 0
-1 -9 0
-2 -10 0
-3 -11 0
-4 -12 0
-5 -69 0
-6 -70 0
-7 -71 0
-8 -72 0
-5 -65 0
-6 -66 0
-7 -67 0
-8 -68 0
-5 -61 0
-6 -62 0
-7 -63 0
-8 -64 0
-5 -57 0
-6 -58 0
-7 -59 0
-8 -60 0
-5 -53 0
-6 -54 0
-7 -55 0
-8 -56 0
-5 -49 0
-6 -50 0
-7 -51 0
-8 -52 0
-5 -33 0
-6 -34 0
-7 -35 0
-8 -36 0
-5 -21 0
-6 -22 0
-7 -23 0
-8 -24 0
-5 -9 0
-6 -10 0
-7 -11 0
-8 -12 0
-9 -73 0
-10 -74 0
-11 -75 0
-12 -76 0
-9 -65 0
-10 -66 0
-11 -67 0
-12 -68 0
-9 -41 0
-10 -42 0
-11 -43 0
-12 -44 0
-9 -37 0
-10 -38 0
-11 -39 0
-12 -40 0
-9 -33 0
-10 -34 0
-11 -35 0
-12 -36 0
-9 -5 0
-10 -6 0
-11 -7 0
-12 -8 0
-9 -1 0
-10 -2 0
-11 -3 0
-12 -4 0
-13 -73 0
-14 -74 0
-15 -75 0
-16 -76 0
-13 -65 0
-14 -66 0
-15 -67 0
-16 -68 0
-13 -53 0
-14 -54 0
-15 -55 0
-16 -56 0
-13 -41 0
-14 -42 0
-15 -43 0
-16 -44 0
-13 -33 0
-14 -34 0
-15 -35 0
-16 -36 0
-13 -21 0
-14 -22 0
-15 -23 0
-16 -24 0
-13 -1 0
-14 -2 0
-15 -3 0
-16 -4 0
-17 -69 0
-18 -70 0
-19 -71 0
-20 -72 0
-17 -65 0
-18 -66 0
-19 -67 0
-20 -68 0
-17 -57 0
-18 -58 0
-19 -59 0
-20 -60 0
-17 -53 0
-18 -54 0
-19 -55 0
-20 -56 0
-17 -33 0
-18 -34 0
-19 -35 0
-20 -36 0
-17 -1 0
-18 -2 0
-19 -3 0
-20 -4 0
-21 -69 0
-22 -70 0
-23 -71 0
-24 -72 0
-21 -65 0
-22 -66 0
-23 -67 0
-24 -68 0
-21 -61 0
-22 -62 0
-23 -63 0
-24 -64 0
-21 -49 0
-22 -50 0
-23 -51 0
-24 -52 0
-21 -13 0
-22 -14 0
-23 -15 0
-24 -16 0
-21 -5 0
-22 -6 0
-23 -7 0
-24 -8 0
-25 -69 0
-26 -70 0
-27 -71 0
-28 -72 0
-25 -41 0
-26 -42 0
-27 -43 0
-28 -44 0
-25 -37 0
-26 -38 0
-27 -39 0
-28 -40 0
-25 -29 0
-26 -30 0
-27 -31 0
-28 -32 0
-29 -53 0
-30 -54 0
-31 -55 0
-32 -56 0
-29 -25 0
-30 -26 0
-31 -27 0
-32 -28 0
-33 -69 0
-34 -70 0
-35 -71 0
-36 -72 0
-33 -65 0
-34 -66 0
-35 -67 0
-36 -68 0
-33 -17 0
-34 -18 0
-35 -19 0
-36 -20 0
-33 -13 0
-34 -14 0
-35 -15 0
-36 -16 0
-33 -9 0
-34 -10 0
-35 -11 0
-36 -12 0
-33 -5 0
-34 -6 0
-35 -7 0
-36 -8 0
-37 -57 0
-38 -58 0
-39 -59 0
-40 -60 0
-37 -53 0
-38 -54 0
-39 -55 0
-40 -56 0
-37 -49 0
-38 -50 0
-39 -51 0
-40 -52 0
-37 -25 0
-38 -26 0
-39 -27 0
-40 -28 0
-37 -9 0
-38 -10 0
-39 -11 0
-40 -12 0
-41 -65 0
-42 -66 0
-43 -67 0
-44 -68 0
-41 -25 0
-42 -26 0
-43 -27 0
-44 -28 0
-41 -13 0
-42 -14 0
-43 -15 0
-44 -16 0
-41 -9 0
-42 -10 0
-43 -11 0
-44 -12 0
-45 -69 0
-46 -70 0
-47 -71 0
-48 -72 0
-45 -57 0
-46 -58 0
-47 -59 0
-48 -60 0
-45 -1 0
-46 -2 0
-47 -3 0
-48 -4 0
-49 -37 0
-50 -38 0
-51 -39 0
-52 -40 0
-49 -21 0
-50 -22 0
-51 -23 0
-52 -24 0
-49 -5 0
-50 -6 0
-51 -7 0
-52 -8 0
-53 -65 0
-54 -66 0
-55 -67 0
-56 -68 0
-53 -57 0
-54 -58 0
-55 -59 0
-56 -60 0
-53 -37 0
-54 -38 0
-55 -39 0
-56 -40 0
-53 -29 0
-54 -30 0
-55 -31 0
-56 -32 0
-53 -17 0
-54 -18 0
-55 -19 0
-56 -20 0
-53 -13 0
-54 -14 0
-55 -15 0
-56 -16 0
-53 -5 0
-54 -6 0
-55 -7 0
-56 -8 0
-57 -53 0
-58 -54 0
-59 -55 0
-60 -56 0
-57 -45 0
-58 -46 0
-59 -47 0
-60 -48 0
-57 -37 0
-58 -38 0
-59 -39 0
-60 -40 0
-57 -17 0
-58 -18 0
-59 -19 0
-60 -20 0
-57 -5 0
-58 -6 0
-59 -7 0
-60 -8 0
-61 -65 0
-62 -66 0
-63 -67 0
-64 -68 0
-61 -21 0
-62 -22 0
-63 -23 0
-64 -24 0
-61 -5 0
-62 -6 0
-63 -7 0
-64 -8 0
-65 -69 0
-66 -70 0
-67 -71 0
-68 -72 0
-65 -61 0
-66 -62 0
-67 -63 0
-68 -64 0
-65 -53 0
-66 -54 0
-67 -55 0
-68 -56 0
-65 -41 0
-66 -42 0
-67 -43 0
-68 -44 0
-65 -33 0
-66 -34 0
-67 -35 0
-68 -36 0
-65 -21 0
-66 -22 0
-67 -23 0
-68 -24 0
-65 -17 0
-66 -18 0
-67 -19 0
-68 -20 0
-65 -13 0
-66 -14 0
-67 -15 0
-68 -16 0
-65 -9 0
-66 -10 0
-67 -11 0
-68 -12 0
-65 -5 0
-66 -6 0
-67 -7 0
-68 -8 0
-69 -73 0
-70 -74 0
-71 -75 0
-72 -76 0
-69 -65 0
-70 -66 0
-71 -67 0
-72 -68 0
-69 -45 0
-70 -46 0
-71 -47 0
-72 -48 0
-69 -33 0
-70 -34 0
-71 -35 0
-72 -36 0
-69 -25 0
-70 -26 0
-71 -27 0
-72 -28 0
-69 -21 0
-70 -22 0
-71 -23 0
-72 -24 0
-69 -17 0
-70 -18 0
-71 -19 0
-72 -20 0
-69 -5 0
-70 -6 0
-71 -7 0
-72 -8 0
-73 -69 0
-74 -70 0
-75 -71 0
-76 -72 0
-73 -13 0
-74 -14 0
-75 -15 0
-76 -16 0
-73 -9 0
-74 -10 0
-75 -11 0
-76 -12 0
-73 -1 0
-74 -2 0
-75 -3 0
-76 -4 0
